# Solution for model p01_budget_0p290
# Objective value = 2.9000000000006310e-01
Risk 2.9000000000006310e-01
0 0
1 0
3 0.001
4 30.001
5 3.0002000000000002e+01
6 40.002
7 3.6622926370359579e+01
9 76.3679419848203
c(0,1)_Rl 0.001
c(0,1)_Ru 0
c(0,3)_Rl 0
c(0,3)_Ru 0
c(3,4)_Rl 0
c(3,4)_Ru 0
c(4,5)_Rl 0
c(4,5)_Ru 0
c(3,5)_Rl 0
c(3,5)_Ru 0
c(1,2)_l 0
c(1,2)_u 3.6621926370359581e+01
c(2,7)_Fl 0
c(2,7)_Fu 1.5937833583270744e-01
c(1,7)_Rl 0
c(1,7)_Ru 0
c(5,6)_Rl 0
c(5,6)_Ru 0
c(3,6)_Rl 0
c(3,6)_Ru 0
c(7,8)_l 0
c(7,8)_u 3.9744015614460722e+01
c(1,8)_Fl 0
c(1,8)_Fu 6.5310832083677828e-02
c(0,9)_Rl 0
c(0,9)_Ru 4.0367341984820307e+01
c(8,9)_Fl 0
c(8,9)_Fu 6.5310832083677828e-02
c(6,9)_Rl 0
c(6,9)_Ru 0
Cost 4.0368341984820304e+01
